c --- [ banner ] -------------------------------------------------------------
c 
c CaDiCaL SAT Solver
c Copyright (c) 2016-2023 A. Biere, M. Fleury, N. Froleyks, K. Fazekas, F. Pollitt
c 
c Version 1.9.5
c g++ (Ubuntu 11.4.0-1ubuntu1~22.04) 11.4.0 -Wall -Wextra -O3 -DNDEBUG -static
c Thu Mar 7 06:16:21 CET 2024 Linux pc101447 6.5.0-17-generic x86_64
c 
c --- [ limit ] --------------------------------------------------------------
c 
c setting time limit to 3600 seconds real time (due to '-t 3600')
c 
c --- [ parsing input ] ------------------------------------------------------
c 
c reading DIMACS file from '/home/oliveras/SAT-comp-2023//af3d5273605b21b9d4c56dd46cbf366a-SCPC-700-82.cnf'
c opening file to read '/home/oliveras/SAT-comp-2023//af3d5273605b21b9d4c56dd46cbf366a-SCPC-700-82.cnf'
c found 'p cnf 700 27275' header
c parsed 27275 clauses in 0.03 seconds process time
c 
c --- [ options ] ------------------------------------------------------------
c 
c   --seed=1                       (different from default '0')
c 
c --- [ solving ] ------------------------------------------------------------
c 
c time measured in process time since initialization
c 
c  seconds  reductions  redundant  irredundant
c         MB    restarts       trail     variables
c          level   conflicts       glue      remaining
c 
c *  0.03  4  0 0   0    0    0  0% 0 27275 700 100%
c {  0.04  5  0 0   0    0    0  0% 0 27275 700 100%
c -  0.06  5 20 1   0  301  170 91% 18 27275 700 100%
c -  0.10  7 20 2   8  901  407 90% 18 27275 700 100%
c }  0.11  7 21 2   8 1001  479 90% 18 27275 700 100%
c [  0.11  7  0 2   8 1001  479  0% 0 27275 700 100%
c O  0.11  7 14 2   8 1002  480 89% 14 27275 700 100%
c -  0.16  7 21 3   8 1804  667 91% 18 27275 700 100%
c ]  0.23  7 23 3   9 3001 1620 90% 20 27275 700 100%
c {  0.23  7 21 3   9 3001 1620 90% 18 27275 700 100%
c F  0.23  7 21 3   9 3003 1622 90% 18 27275 700 100%
c -  0.24  7 21 4   9 3005 1149 90% 18 27275 700 100%
c -  0.33  7 20 5  15 4507 1235 91% 18 27275 700 100%
c #  0.46  7 20 5  30 6005 2239 91% 18 27275 700 100%
c -  0.48  7 20 6  32 6308 1649 91% 18 27275 700 100%
c }  0.53  7 20 6  32 7002 2156 90% 18 27275 700 100%
c [  0.53  7 23 6  32 7002 2156 90% 20 27275 700 100%
c -  0.59  7 23 7  33 8409 1905 91% 19 27275 700 100%
c I  0.67  7 23 7  34 10007 3125 91% 20 27275 700 100%
c s  0.75  8 51 7  35 10569 3456 90% 34 27275 700 100%
c 
c  seconds  reductions   redundant   irredundant
c         MB    restarts        trail      variables
c          level    conflicts       glue       remaining
c 
c w  0.77  8 51 7  35 10569 3454 90% 34 27275 700 100%
c s  0.81  8 51 7  35 10569 3390 90% 34 27275 700 100%
c ^  0.81  8 51 7  35 10569 3390 90% 34 27275 700 100%
c -  0.83  8 56 8  35 10809 2435 90% 37 27275 700 100%
c -  1.04  9 81 9  37 13510 3019 89% 54 27275 700 100%
c ]  1.16  9 88 9  37 15006 4288 89% 59 27275 700 100%
c {  1.16  9 20 9  37 15006 4288 90% 18 27275 700 100%
c B  1.19  9 20 9  38 15008 4290 90% 18 27275 700 100%
c -  1.26  9 20 10  57 16512 3226 90% 18 27275 700 100%
c -  1.43  7 20 11  73 19812 2976 91% 17 27275 700 100%
c W  1.50  7 20 11  81 21009 3744 90% 17 27275 700 100%
c -  1.62  9 20 12 183 23412 3192 91% 18 27275 700 100%
c -  1.80 11 20 13 216 27312 3189 91% 18 27275 700 100%
c F  1.83 11 20 13 216 28011 3634 91% 18 27275 700 100%
c }  2.01 11 20 13 262 31006 5492 91% 18 27275 700 100%
c [  2.01 11 88 13 262 31006 5492 89% 59 27275 700 100%
c -  2.03 11 84 14 262 31512 3569 89% 57 27275 700 100%
c s  2.07 11 83 14 262 31706 3560 90% 56 27275 700 100%
c s  2.13 11 83 14 262 31706 3541 90% 56 27275 700 100%
c ^  2.13 11 83 14 262 31706 3541 90% 56 27275 700 100%
c 
c  seconds  reductions    redundant   irredundant
c         MB     restarts        trail      variables
c          level     conflicts       glue       remaining
c 
c -  2.35 11 66 15 265 36012 4270 90% 46 27275 700 100%
c B  2.35 11 66 15 265 36013 4271 90% 46 27275 700 100%
c -  2.60 11 55 16 268 40812 4660 90% 39 27275 700 100%
c W  2.85 11 49 16 269 45014 7786 90% 36 27275 700 100%
c -  2.90 11 48 17 269 45912 5286 90% 35 27275 700 100%
c -  3.22 11 45 18 270 51312 5812 90% 33 27275 700 100%
c O  3.42 11 44 18 271 55015 8938 90% 32 27275 700 100%
c -  3.53 12 43 19 273 57013 6141 90% 32 27275 700 100%
c ]  3.84 12 40 19 277 63007 10702 90% 30 27275 700 100%
c {  3.84 12 20 19 277 63007 10702 91% 18 27275 700 100%
c -  3.84 12 20 20 277 63015 6337 91% 18 27275 700 100%
c s  3.89 12 20 20 278 63412 6477 91% 18 27275 700 100%
c s  3.96 12 20 20 278 63412 6462 91% 18 27275 700 100%
c ^  3.96 12 20 20 278 63412 6462 91% 18 27275 700 100%
c B  4.11 12 20 20 296 66018 8122 91% 18 27275 700 100%
c -  4.28 12 20 21 337 69318 5863 91% 18 27275 700 100%
c -  4.64 12 20 22 450 75920 5329 91% 18 27275 700 100%
c W  4.76 12 20 22 461 78019 6587 91% 18 27275 700 100%
c -  5.00 12 20 23 613 82821 5528 91% 18 27275 700 100%
c -  5.35 12 20 24 754 90021 5756 91% 18 27275 700 100%
c 
c  seconds  reductions    redundant   irredundant
c         MB     restarts        trail      variables
c          level     conflicts       glue       remaining
c 
c #  5.39 12 20 24 759 91020 6254 91% 18 27275 700 100%
c -  5.71 12 20 25 816 97521 5980 91% 18 27275 700 100%
c B  6.11 12 20 25 871 105026 10627 91% 18 27275 700 100%
c -  6.13 12 20 26 897 105321 6559 91% 18 27275 700 100%
c s  6.17 12 20 26 902 105688 6481 91% 18 27275 700 100%
c w  6.19 12 20 26 902 105688 6466 91% 18 27275 700 100%
c s  6.24 12 20 26 902 105688 6437 91% 18 27275 700 100%
c ^  6.24 12 20 26 902 105688 6437 91% 18 27275 700 100%
c -  6.62 12 20 27 1000 113422 6541 91% 18 27275 700 100%
c W  6.98 12 20 27 1097 120029 10585 91% 18 27275 700 100%
c -  7.08 12 20 28 1127 121822 6747 91% 18 27275 700 100%
c }  7.34 12 20 28 1159 127009 10052 91% 18 27275 700 100%
c [  7.34 12 40 28 1159 127009 10052 90% 30 27275 700 100%
c -  7.53 12 39 29 1159 130523 7804 90% 29 27275 700 100%
c B  7.81 12 37 29 1163 136032 11687 91% 28 27275 700 100%
c -  8.00  9 40 30 1165 139523 9378 91% 30 27275 700 100%
c -  8.53  9 38 31 1167 148824 10072 91% 29 27275 700 100%
c W  8.79  9 38 31 1168 153037 13321 91% 28 27275 700 100%
c -  9.10  9 36 32 1168 158424 10117 91% 28 27275 700 100%
c s  9.13  9 36 32 1168 158531 9973 91% 28 27275 700 100%
c 
c  seconds  reductions      redundant   irredundant
c         MB     restarts          trail      variables
c          level      conflicts        glue       remaining
c 
c w  9.16  9 36 32 1168 158531 9954 91% 28 27275 700 100%
c s  9.21  9 36 32 1168 158531 9877 91% 28 27275 700 100%
c ^  9.21  9 36 32 1168 158531 9877 91% 28 27275 700 100%
c -  9.72 12 35 33 1168 168324 10498 91% 27 27275 700 100%
c I  9.87 12 35 33 1171 171040 12499 91% 27 27275 700 100%
c - 10.53 19 62 34 1175 178524 12100 91% 41 27275 700 100%
c - 11.41 18 71 35 1181 189026 12813 90% 46 27275 700 100%
c B 11.48 18 71 35 1182 190041 13646 90% 45 27275 700 100%
c - 12.07 17 73 36 1183 199827 13064 90% 47 27275 700 100%
c W 12.81 17 75 36 1189 210045 22281 90% 48 27275 700 100%
c - 12.88 21 75 37 1189 210927 13910 90% 47 27275 700 100%
c s 13.66 21 72 37 1196 221940 23504 91% 46 27275 700 100%
c w 13.70 21 72 37 1196 221940 23498 91% 46 27275 700 100%
c s 13.76 21 72 37 1196 221940 23494 91% 46 27275 700 100%
c - 13.80 21 72 38 1196 222327 14378 91% 46 27275 700 100%
c O 14.43 21 69 38 1198 231046 21693 91% 45 27275 700 100%
c - 14.60 21 68 39 1198 234027 14037 91% 44 27275 700 100%
c - 15.27 21 62 40 1199 246027 12960 91% 41 27275 700 100%
c B 15.64 21 59 40 1200 253047 18360 91% 40 27275 700 100%
c ] 15.76 21 59 40 1200 255009 19927 91% 39 27275 700 100%
c 
c  seconds  reductions       redundant   irredundant
c         MB     restarts           trail      variables
c          level      conflicts         glue       remaining
c 
c { 15.76 21 20 40 1200 255009 19927 91% 18 27275 700 100%
c - 15.96 21 20 41 1288 258329 12539 91% 18 27275 700 100%
c - 16.61 21 20 42 1414 270930 11171 91% 18 27275 700 100%
c F 16.91 21 20 42 1448 276048 14339 91% 18 27275 700 100%
c - 17.30 21 20 43 1547 283830 10851 91% 18 27275 700 100%
c - 17.97 21 20 44 1622 297030 11121 91% 18 27275 700 100%
c B 18.13 21 20 44 1659 300051 13012 91% 18 27275 700 100%
c - 18.66 21 20 45 1809 310533 11209 91% 18 27275 700 100%
c - 19.38 21 20 46 1958 324333 11460 91% 18 27275 700 100%
c W 19.44 21 20 46 1962 325053 11929 91% 18 27275 700 100%
c - 20.14 21 20 47 2175 338435 11700 91% 18 27275 700 100%
c # 20.76 21 20 47 2254 351056 19689 91% 18 27275 700 100%
c - 20.85 21 20 48 2295 352835 11959 91% 18 27275 700 100%
c - 21.59 21 20 49 2501 367539 11893 91% 18 27275 700 100%
c B 22.13 21 20 49 2683 378057 18411 91% 18 27275 700 100%
c - 22.36 21 20 50 2811 382540 12249 91% 18 27275 700 100%
c - 23.16 21 20 51 2985 397842 12585 91% 18 27275 700 100%
c W 23.66 21 20 51 3018 406058 17889 91% 18 27275 700 100%
c - 24.06 21 20 52 3103 413443 13268 91% 18 27275 700 100%
c - 24.93 21 20 53 3198 429343 13231 91% 18 27275 700 100%
c 
c  seconds  reductions       redundant   irredundant
c         MB     restarts           trail      variables
c          level      conflicts         glue       remaining
c 
c F 25.23 21 20 53 3250 435059 16645 91% 18 27275 700 100%
c - 25.75 21 20 54 3451 445543 13345 91% 18 27275 700 100%
c - 26.64 21 20 55 3760 462043 13484 91% 18 27275 700 100%
c B 26.80 21 20 55 3797 465062 15380 91% 18 27275 700 100%
c - 27.49 21 20 56 3957 478844 13676 91% 18 27275 700 100%
c - 28.38 21 20 57 4088 495946 14480 91% 18 27275 700 100%
c W 28.42 21 20 57 4088 496064 14523 91% 18 27275 700 100%
c } 29.16 21 20 57 4317 511010 23814 91% 18 27275 700 100%
c [ 29.16 21 59 57 4317 511010 23814 91% 39 27275 700 100%
c - 29.27 21 58 58 4317 513349 14667 91% 39 27275 700 100%
c W 30.16 21 53 58 4317 528067 25506 91% 36 27275 700 100%
c - 30.33 21 52 59 4317 531049 17140 91% 36 27275 700 100%
c - 31.34 21 48 60 4323 549050 18181 91% 34 27275 700 100%
c I 32.06 21 45 60 4329 561069 27305 91% 32 27275 700 100%
c - 32.65 28 62 61 4331 567351 20478 91% 42 27275 700 100%
c - 34.52 35 101 62 4339 585952 22971 90% 63 27275 700 100%
c B 35.38 35 110 62 4345 595070 31402 90% 67 27275 700 100%
c - 36.04 30 108 63 4347 604854 23555 90% 66 27275 700 100%
c s 36.12 30 108 63 4347 604854 23014 90% 66 27275 700 100%
c w 36.22 30 108 63 4347 604854 22978 90% 66 27275 700 100%
c 
c  seconds  reductions       redundant   irredundant
c         MB     restarts           trail      variables
c          level      conflicts         glue       remaining
c 
c - 37.45 21 95 64 4348 624055 21481 90% 59 27275 700 100%
c W 37.88 21 91 64 4351 630073 26208 90% 57 27275 700 100%
c - 38.84 24 82 65 4359 643555 21478 91% 53 27275 700 100%
c - 40.03 24 73 66 4366 663357 21483 91% 48 27275 700 100%
c O 40.19 24 72 66 4368 666074 23582 91% 47 27275 700 100%
c - 41.19 24 65 67 4377 683457 20455 91% 43 27275 700 100%
c B 42.29 24 58 67 4379 703075 35378 91% 40 27275 700 100%
c - 42.35 24 58 68 4379 703859 21096 91% 40 27275 700 100%
c - 43.57 24 53 69 4380 724560 21523 91% 37 27275 700 100%
c W 44.67 24 50 69 4380 741076 34348 91% 35 27275 700 100%
c - 44.98 29 49 70 4381 745561 22856 91% 35 27275 700 100%
c - 46.53 29 47 71 4381 766861 23610 91% 34 27275 700 100%
c I 47.39 29 45 71 4381 780079 33377 91% 33 27275 700 100%
c - 48.21 30 68 72 4381 788463 25377 91% 44 27275 700 100%
c - 50.77 51 118 73 4381 810363 27666 90% 71 27275 700 100%
c B 51.90 51 136 73 4388 820085 36701 90% 80 27275 700 100%
c - 52.84 47 138 74 4395 832563 28977 90% 81 27275 700 100%
c - 54.82 34 124 75 4403 855063 28216 90% 74 27275 700 100%
c ] 55.31 34 119 75 4406 861085 32863 90% 71 27275 700 100%
c 1 55.31 34 119 75 4406 861085 32863 90% 71 27275 700 100%
c 
c --- [ result ] -------------------------------------------------------------
c 
s SATISFIABLE
v -1 -2 -3 -4 -5 6 7 8 -9 -10 -11 -12 -13 -14 -15 -16 -17 -18 -19 -20 -21 -22
v -23 -24 -25 -26 27 -28 -29 -30 31 -32 -33 -34 35 -36 -37 -38 -39 -40 -41 -42
v -43 -44 -45 -46 -47 -48 -49 -50 -51 -52 -53 -54 -55 -56 -57 -58 -59 -60 -61
v -62 -63 -64 -65 -66 -67 -68 69 -70 -71 -72 -73 -74 -75 -76 -77 -78 -79 -80
v -81 -82 -83 -84 -85 -86 -87 -88 -89 -90 -91 -92 -93 -94 -95 -96 -97 -98 -99
v -100 -101 -102 -103 -104 -105 -106 -107 -108 -109 -110 -111 -112 -113 -114
v -115 -116 -117 -118 -119 -120 -121 -122 -123 -124 -125 -126 -127 -128 -129
v -130 -131 -132 -133 -134 -135 -136 -137 -138 -139 -140 141 -142 -143 -144
v -145 -146 -147 -148 -149 -150 -151 -152 -153 -154 -155 -156 -157 -158 -159
v -160 -161 -162 -163 -164 -165 -166 -167 -168 -169 -170 -171 -172 -173 -174
v -175 -176 -177 -178 -179 -180 -181 -182 -183 -184 -185 -186 -187 -188 -189
v 190 -191 -192 -193 -194 -195 -196 -197 -198 -199 -200 -201 -202 -203 -204
v -205 -206 -207 -208 -209 -210 -211 -212 -213 214 215 -216 -217 -218 -219
v -220 -221 -222 -223 -224 -225 -226 -227 -228 -229 -230 -231 -232 -233 234
v -235 -236 -237 -238 -239 -240 241 242 -243 -244 -245 -246 -247 -248 -249 250
v -251 -252 -253 -254 -255 -256 -257 -258 -259 -260 -261 -262 -263 -264 -265
v -266 -267 -268 -269 -270 -271 -272 -273 -274 -275 -276 -277 -278 -279 -280
v -281 -282 -283 -284 -285 -286 -287 -288 -289 -290 -291 -292 293 -294 -295
v -296 -297 -298 -299 -300 -301 -302 -303 -304 -305 306 -307 308 -309 -310
v -311 312 -313 -314 -315 -316 -317 -318 -319 -320 -321 -322 323 -324 -325 326
v -327 -328 -329 -330 -331 -332 -333 -334 -335 -336 -337 -338 -339 -340 -341
v -342 -343 -344 -345 -346 -347 -348 -349 -350 -351 -352 -353 -354 -355 -356
v -357 -358 -359 -360 -361 -362 -363 -364 -365 -366 -367 -368 -369 -370 -371
v -372 -373 374 -375 -376 377 -378 -379 -380 -381 382 -383 -384 -385 -386 -387
v 388 -389 -390 -391 -392 -393 394 -395 396 -397 -398 -399 -400 401 -402 -403
v -404 -405 -406 -407 -408 -409 -410 -411 -412 -413 -414 -415 -416 -417 -418
v -419 -420 -421 -422 423 -424 425 -426 -427 -428 -429 -430 -431 -432 -433
v -434 -435 -436 -437 -438 -439 440 -441 -442 -443 -444 445 -446 -447 -448
v -449 -450 -451 -452 453 -454 -455 -456 -457 -458 -459 -460 -461 -462 -463
v -464 -465 466 467 -468 -469 -470 -471 -472 -473 -474 -475 -476 -477 -478
v -479 -480 -481 -482 -483 -484 -485 -486 -487 -488 -489 -490 -491 -492 -493
v -494 -495 -496 -497 -498 -499 -500 -501 -502 -503 -504 -505 -506 -507 -508
v -509 -510 -511 -512 -513 -514 -515 -516 517 -518 -519 -520 -521 -522 -523
v -524 -525 -526 -527 -528 -529 -530 -531 -532 -533 -534 -535 -536 -537 538
v -539 -540 -541 -542 -543 -544 -545 -546 -547 -548 -549 -550 -551 -552 -553
v -554 -555 -556 -557 -558 -559 -560 -561 -562 -563 -564 565 -566 -567 -568
v -569 -570 -571 -572 -573 -574 -575 -576 -577 -578 -579 -580 -581 -582 -583
v -584 585 -586 587 -588 -589 -590 -591 -592 -593 -594 -595 -596 -597 -598
v -599 -600 -601 -602 -603 -604 -605 -606 -607 -608 -609 -610 -611 -612 -613
v -614 -615 -616 -617 -618 -619 -620 -621 -622 -623 -624 -625 -626 -627 -628
v -629 630 -631 -632 -633 -634 -635 -636 637 -638 -639 -640 -641 -642 643 -644
v -645 646 -647 -648 -649 -650 -651 -652 -653 -654 655 -656 -657 -658 -659
v -660 -661 -662 -663 -664 -665 -666 -667 -668 -669 -670 -671 -672 -673 674
v -675 -676 -677 -678 -679 -680 -681 682 -683 -684 -685 -686 -687 -688 -689
v 690 -691 -692 -693 -694 -695 -696 -697 -698 -699 -700 0
c 
c --- [ run-time profiling ] -------------------------------------------------
c 
c process time taken by individual solving procedures
c (percentage relative to process time for solving)
c 
c        53.88   97.47% search
c        35.73   64.64% stable
c        17.49   31.64% unstable
c         1.40    2.53% simplify
c         0.65    1.18% walk
c         0.49    0.89% probe
c         0.38    0.69% subsume
c         0.24    0.43% vivify
c         0.06    0.11% ternary
c         0.03    0.06% elim
c         0.03    0.06% parse
c         0.01    0.01% lucky
c   =================================
c        55.28   99.94% solve
c 
c last line shows process time for solving
c (percentage relative to total process time)
c 
c --- [ statistics ] ---------------------------------------------------------
c 
c chronological:            179223        20.81 %  of conflicts
c conflicts:                861085     15576.46    per second
c decisions:               1029330     18619.91    per second
c learned:                  839080        97.44 %  per conflict
c learned_lits:          119071767       100.00 %  learned literals
c minimized:                     0         0.00 %  learned literals
c shrunken:               76898752        64.58 %  learned literals
c minishrunken:            3113931         2.62 %  learned literals
c otfs:                       1793         0.21 %  of conflict
c propagations:           39236979         0.71 M  per second
c reduced:                  594757        69.07 %  per conflict
c rephased:                     41     21002.07    interval
c restarts:                   4406       195.43    interval
c stabilizing:                   5        60.40 %  of conflicts
c subsumed:                 211458        24.41 %  of all clauses
c strengthened:              13386         1.55 %  of all clauses
c trail reuses:                  0         0.00 %  of incremental calls
c vivified:                    102         0.01 %  of all clauses
c walked:                       13     66237.31    interval
c 
c seconds are measured in process time for solving
c 
c --- [ resources ] ----------------------------------------------------------
c 
c total process time since initialization:        55.31    seconds
c total real time since initialization:           55.32    seconds
c maximum resident set size of process:           65.21    MB
c 
c --- [ shutting down ] ------------------------------------------------------
c 
c exit 10
